outputs/case_463.model.txt
internal_control_system_established = True
separate_evaluations_performed = True
relevant_quality_information_collected = True
risk_management_procedures_prepared = True
human_resources_policy_established = True
complete_financial_operational_compliance_information = True
no_conflicting_responsibilities = True
all_process_stages_covered = True
authority_and_responsibility_assigned = True
integrity_and_ethics_established = True
internal_control_system_effective = True
risk_management_policy_planned = True
external_environment_and_business_model_considered = True
proper_segregation_of_duties = True
organizational_structure_established = True
technology_environment_covered = True
subsidiaries_supervised = True
ongoing_evaluations_performed = True
internal_code_of_conduct_established = True
control_activities_designed_and_executed = True
deficiencies_communicated_and_corrected = True
business_plan_prepared = True
all_levels_covered = True
guidelines_planned = True
execution_guidelines_prepared = True
board_and_supervisory_responsibility_established = True
management_strategy_planned = True
fraud_risk_considered = True
internal_and_external_communication_effective = True
objectives_defined = True
performance_measurement_and_rewards_established = True
overall_management_planned = True
internal_control_executed = True
monitoring_activities_performed = True
internal_control_compliance = True
penalty = False
risk_assessment_performed = True
control_environment_established = True
information_and_communication_effective = True
internal_control_established = True
control_activities_executed = True